8
0, 426, 563, 269, 279, 208, 989, 685
426, 0, 347, 380, 550, 592, 632, 330
563, 347, 0, 663, 500, 770, 455, 213
269, 380, 663, 0, 542, 290, 1013, 707
279, 550, 500, 542, 0, 431, 955, 687
208, 592, 770, 290, 431, 0, 1187, 880
989, 632, 455, 1013, 955, 1187, 0, 309
685, 330, 213, 707, 687, 880, 309, 0
